NAME : brg180.1980.tour
COMMENT : Cost = 0_1980
COMMENT : Found by LKH [Keld Helsgaun] Thu Nov 16 16:24:25 2017
TYPE : TOUR
DIMENSION : 182
TOUR_SECTION
1
12
182
84
73
74
75
76
77
78
79
80
81
82
83
134
135
136
137
138
139
140
141
142
143
144
133
36
25
26
27
28
29
30
31
32
33
34
35
132
121
122
123
124
125
126
127
128
129
130
131
50
51
52
53
54
55
56
57
58
59
60
49
119
118
117
116
115
114
113
112
111
110
109
120
105
104
103
102
101
100
99
98
97
108
107
106
45
44
43
42
41
40
39
38
37
48
47
46
167
166
165
164
163
162
161
160
159
158
157
168
92
93
94
95
96
85
86
87
88
89
90
91
17
16
15
14
13
24
23
22
21
20
19
18
180
169
170
171
172
173
174
175
176
177
178
179
64
65
66
67
68
69
70
71
72
61
62
63
181
2
3
4
5
6
7
8
9
10
11
147
146
145
156
155
154
153
152
151
150
149
148
-1
EOF
